  6	39
 22
  0	  4	 27	 36	 66	 19	  8	 47	 75	 58	 37	 13	 76	 43	 30	 69	 12	 52	 15	 54	 51	 79	
 22
  0	  1	 14	 40	 24	 53	 39	 63	 38	 11	 17	 50	 78	 56	 28	 77	 20	 67	 21	 59	 60	 79	
 10
  0	 33	  9	 72	  2	 48	 41	 35	 74	 79	
 10
  0	  7	 46	  5	 26	 65	 23	 44	 62	 79	
 12
  0	 31	  6	  3	 45	 25	 70	 64	 10	 42	 49	 79	
 14
  0	 29	 22	 61	 34	 68	 32	 73	 71	 18	 16	 57	 55	 79	
